2 30
334 321 
0 79 86 1 4 17 56 1
1 47 50 94 93 81 43 1
2 23 16 79 87 4 78 1
3 86 93 53 48 89 59 2
4 88 82 26 25 44 83 2
5 65 60 20 14 53 73 1
6 103 95 24 22 94 64 1
7 19 22 57 60 35 76 1
8 100 99 56 66 87 59 1
9 109 100 60 55 92 50 1
10 67 62 108 100 66 68 2
11 11 21 38 32 99 25 2
12 43 42 92 85 12 48 1
13 22 26 72 73 72 31 1
14 64 55 73 81 47 96 2
15 98 99 14 21 45 47 1
16 88 91 81 78 43 75 1
17 101 94 85 81 24 38 1
18 15 15 44 38 47 70 2
19 58 68 47 43 21 73 2
20 26 31 31 30 18 59 1
21 20 22 82 80 59 39 2
22 8 6 58 57 89 84 1
23 50 57 30 39 47 99 2
24 36 39 53 57 83 38 2
25 97 94 2 9 20 18 2
26 14 16 58 59 16 70 1
27 16 18 55 56 3 53 1
28 28 24 43 46 27 20 2
29 85 89 70 68 98 96 2
